experiment/data/hgs-res/Vrp-Set-A-n62/Vrp-Set-A-n62-hgs/0.hgs1.vrp
NAME : 0
COMMENT : CVRP Instance
TYPE : CVRP
DIMENSION : 62
EDGE_WEIGHT_TYPE : EUC_2D
CAPACITY : 100
NODE_COORD_SECTION
1	2.0	48.0
2	64.0	71.0
3	33.0	83.0
4	77.0	89.0
5	96.0	61.0
6	53.0	55.0
7	38.0	10.0
8	7.0	40.0
9	7.0	1.0
10	73.0	68.0
11	4.0	24.0
12	82.0	56.0
13	30.0	56.0
14	38.0	62.0
15	42.0	53.0
16	5.0	49.0
17	1.0	85.0
18	94.0	4.0
19	50.0	70.0
20	35.0	69.0
21	14.0	41.0
22	94.0	73.0
23	23.0	96.0
24	96.0	88.0
25	74.0	94.0
26	68.0	52.0
27	73.0	22.0
28	92.0	96.0
29	4.0	48.0
30	24.0	10.0
31	52.0	72.0
32	61.0	46.0
33	38.0	9.0
34	90.0	15.0
35	58.0	41.0
36	93.0	41.0
37	8.0	74.0
38	13.0	87.0
39	34.0	68.0
40	84.0	97.0
41	35.0	20.0
42	96.0	79.0
43	73.0	87.0
44	21.0	1.0
45	28.0	93.0
46	55.0	94.0
47	56.0	84.0
48	68.0	99.0
49	30.0	53.0
50	85.0	49.0
51	85.0	2.0
52	0.0	30.0
53	12.0	71.0
54	26.0	55.0
55	72.0	75.0
56	71.0	21.0
57	33.0	49.0
58	51.0	2.0
59	93.0	7.0
60	70.0	22.0
61	54.0	53.0
62	26.0	17.0
DEMAND_SECTION
1	0
2	26
3	18
4	16
5	8
6	7
7	11
8	4
9	9
10	9
11	16
12	7
13	6
14	1
15	2
16	22
17	23
18	4
19	3
20	20
21	7
22	1
23	2
24	12
25	22
26	6
27	11
28	12
29	2
30	14
31	14
32	2
33	9
34	20
35	2
36	18
37	19
38	18
39	4
40	16
41	26
42	3
43	23
44	16
45	10
46	9
47	21
48	24
49	24
50	19
51	12
52	16
53	6
54	2
55	2
56	2
57	23
58	16
59	26
60	21
61	2
62	7
DEPOT_SECTION
1
-1
EOF
