experiment/data/hgs-res/Vrp-Set-A-n62/Vrp-Set-A-n62-hgs/0.hgs1.log
=========== Algorithm Parameters =================
---- nbGranular        is set to 20
---- mu                is set to 25
---- lambda            is set to 40
---- nbElite           is set to 4
---- nbClose           is set to 5
---- targetFeasible    is set to 0.2
---- seed              is set to 1234
---- nbIter            is set to 20000
---- timeLimit         is set to 0
---- useSwapStar       is set to 1
==================================================
----- READING INSTANCE: baseline_results/cvrp_hgs/Vrp-Set-A-n62/Vrp-Set-A-n62-hgs/0.hgs1.vrp
----- FLEET SIZE WAS NOT SPECIFIED: DEFAULT INITIALIZATION TO 13 VEHICLES
----- INSTANCE SUCCESSFULLY LOADED WITH 61 CLIENTS AND 13 VEHICLES
----- BUILDING INITIAL POPULATION
----- STARTING GENETIC ALGORITHM
It      0      2 | T(s) 0.08 | Feas 49 1301.76 1324.10 | Inf 15 1317.58 1345.75 | Div 0.41 0.54 | Feas 0.86 1.00 | Pen 4.17 0.85
It    500    276 | T(s) 0.33 | Feas 51 1293.94 1300.00 | Inf 35 1279.85 1291.26 | Div 0.30 0.39 | Feas 0.27 1.00 | Pen 2.18 0.38
It   1000    776 | T(s) 0.59 | Feas 43 1293.94 1297.53 | Inf 30 1275.98 1290.81 | Div 0.28 0.43 | Feas 0.19 1.00 | Pen 2.22 0.17
It   1500   1276 | T(s) 0.85 | Feas 64 1293.94 1299.03 | Inf 32 1287.41 1296.77 | Div 0.30 0.39 | Feas 0.14 1.00 | Pen 2.72 0.10
It   2000   1776 | T(s) 1.12 | Feas 28 1293.94 1302.56 | Inf 50 1277.75 1286.19 | Div 0.38 0.34 | Feas 0.20 1.00 | Pen 2.31 0.10
It   2500   2276 | T(s) 1.39 | Feas 34 1293.94 1301.24 | Inf 40 1278.86 1286.23 | Div 0.36 0.35 | Feas 0.25 1.00 | Pen 2.35 0.10
It   3000   2776 | T(s) 1.64 | Feas 54 1293.94 1297.98 | Inf 52 1279.99 1286.98 | Div 0.29 0.32 | Feas 0.23 1.00 | Pen 2.40 0.10
It   3500   3276 | T(s) 1.91 | Feas 53 1293.94 1299.84 | Inf 47 1281.14 1289.05 | Div 0.32 0.33 | Feas 0.04 1.00 | Pen 2.45 0.10
It   4000   3776 | T(s) 2.18 | Feas 51 1293.94 1298.20 | Inf 34 1283.52 1290.85 | Div 0.31 0.37 | Feas 0.12 1.00 | Pen 2.55 0.10
It   4500   4276 | T(s) 2.44 | Feas 34 1293.94 1301.09 | Inf 62 1275.38 1283.75 | Div 0.35 0.34 | Feas 0.16 1.00 | Pen 2.21 0.10
It   5000   4776 | T(s) 2.70 | Feas 36 1293.94 1299.00 | Inf 48 1277.53 1284.82 | Div 0.34 0.34 | Feas 0.22 1.00 | Pen 2.30 0.10
It   5500   5276 | T(s) 2.96 | Feas 25 1293.94 1303.74 | Inf 26 1277.53 1291.47 | Div 0.41 0.44 | Feas 0.25 1.00 | Pen 2.30 0.10
It   6000   5776 | T(s) 3.22 | Feas 55 1293.94 1298.18 | Inf 54 1278.63 1288.29 | Div 0.30 0.37 | Feas 0.22 1.00 | Pen 2.35 0.10
It   6500   6276 | T(s) 3.48 | Feas 42 1293.94 1296.99 | Inf 44 1279.76 1286.20 | Div 0.28 0.33 | Feas 0.23 1.00 | Pen 2.39 0.10
It   7000   6776 | T(s) 3.75 | Feas 36 1293.94 1299.99 | Inf 64 1272.12 1280.31 | Div 0.35 0.32 | Feas 0.27 1.00 | Pen 2.07 0.10
It   7500   7276 | T(s) 4.01 | Feas 57 1293.94 1297.34 | Inf 60 1273.12 1279.86 | Div 0.29 0.30 | Feas 0.27 1.00 | Pen 2.12 0.10
It   8000   7776 | T(s) 4.28 | Feas 39 1293.94 1299.74 | Inf 42 1274.13 1282.82 | Div 0.36 0.35 | Feas 0.23 1.00 | Pen 2.16 0.10
It   8500   8276 | T(s) 4.55 | Feas 39 1293.94 1298.97 | Inf 35 1284.49 1293.07 | Div 0.36 0.40 | Feas 0.25 1.00 | Pen 2.59 0.10
It   9000   8776 | T(s) 4.82 | Feas 33 1293.94 1301.62 | Inf 32 1285.69 1293.20 | Div 0.39 0.37 | Feas 0.15 1.00 | Pen 2.64 0.10
It   9500   9276 | T(s) 5.07 | Feas 36 1293.94 1299.12 | Inf 59 1276.22 1283.42 | Div 0.36 0.31 | Feas 0.22 1.00 | Pen 2.24 0.10
It  10000   9776 | T(s) 5.33 | Feas 57 1293.94 1297.28 | Inf 58 1277.30 1282.75 | Div 0.31 0.31 | Feas 0.21 1.00 | Pen 2.29 0.10
It  10500  10276 | T(s) 5.58 | Feas 53 1293.94 1297.23 | Inf 31 1278.40 1286.90 | Div 0.31 0.39 | Feas 0.22 1.00 | Pen 2.34 0.10
It  11000  10776 | T(s) 5.83 | Feas 29 1293.94 1301.18 | Inf 53 1279.52 1286.92 | Div 0.40 0.34 | Feas 0.24 1.00 | Pen 2.38 0.10
It  11500  11276 | T(s) 6.09 | Feas 53 1293.94 1297.92 | Inf 54 1281.83 1288.95 | Div 0.33 0.33 | Feas 0.24 1.00 | Pen 2.48 0.10
It  12000  11776 | T(s) 6.35 | Feas 41 1293.94 1300.01 | Inf 27 1281.83 1292.55 | Div 0.37 0.43 | Feas 0.24 1.00 | Pen 2.48 0.10
It  12500  12276 | T(s) 6.61 | Feas 41 1293.94 1299.27 | Inf 47 1272.91 1280.08 | Div 0.37 0.31 | Feas 0.28 1.00 | Pen 2.11 0.10
It  13000  12776 | T(s) 6.87 | Feas 35 1293.94 1298.96 | Inf 36 1274.95 1282.07 | Div 0.38 0.33 | Feas 0.17 1.00 | Pen 2.19 0.10
It  13500  13276 | T(s) 7.13 | Feas 49 1293.94 1297.52 | Inf 25 1286.65 1300.18 | Div 0.34 0.45 | Feas 0.23 1.00 | Pen 2.68 0.10
It  14000  13776 | T(s) 7.39 | Feas 52 1293.94 1299.41 | Inf 35 1278.17 1290.62 | Div 0.37 0.41 | Feas 0.26 1.00 | Pen 2.33 0.10
It  14500  14276 | T(s) 7.65 | Feas 43 1293.94 1298.15 | Inf 27 1278.17 1290.27 | Div 0.37 0.43 | Feas 0.25 1.00 | Pen 2.33 0.10
It  15000  14776 | T(s) 7.90 | Feas 60 1293.94 1298.02 | Inf 59 1279.29 1286.39 | Div 0.33 0.34 | Feas 0.16 1.00 | Pen 2.37 0.10
It  15500  15276 | T(s) 8.16 | Feas 52 1293.94 1299.73 | Inf 52 1280.43 1286.71 | Div 0.36 0.34 | Feas 0.16 1.00 | Pen 2.42 0.10
It  16000  15776 | T(s) 8.42 | Feas 30 1293.94 1303.85 | Inf 49 1281.59 1286.89 | Div 0.42 0.32 | Feas 0.11 1.00 | Pen 2.47 0.10
It  16500  16276 | T(s) 8.68 | Feas 39 1293.94 1299.41 | Inf 65 1273.71 1280.60 | Div 0.38 0.30 | Feas 0.34 1.00 | Pen 2.14 0.10
It  17000  16776 | T(s) 8.96 | Feas 52 1293.94 1296.57 | Inf 50 1274.74 1281.86 | Div 0.30 0.34 | Feas 0.29 1.00 | Pen 2.18 0.10
It  17500  17276 | T(s) 9.21 | Feas 31 1293.94 1303.08 | Inf 59 1275.78 1282.62 | Div 0.42 0.32 | Feas 0.37 1.00 | Pen 2.23 0.10
It  18000  17776 | T(s) 9.48 | Feas 48 1293.94 1299.75 | Inf 60 1286.40 1291.21 | Div 0.37 0.33 | Feas 0.13 1.00 | Pen 2.67 0.10
It  18500  18276 | T(s) 9.82 | Feas 44 1293.94 1298.74 | Inf 35 1277.94 1288.74 | Div 0.36 0.41 | Feas 0.30 1.00 | Pen 2.32 0.10
It  19000  18776 | T(s) 10.08 | Feas 39 1293.94 1303.19 | Inf 28 1277.94 1290.01 | Div 0.40 0.42 | Feas 0.18 1.00 | Pen 2.32 0.10
It  19500  19276 | T(s) 10.36 | Feas 48 1293.94 1300.06 | Inf 29 1277.94 1288.92 | Div 0.37 0.41 | Feas 0.17 1.00 | Pen 2.32 0.10
It  20000  19776 | T(s) 10.62 | Feas 36 1293.94 1300.12 | Inf 64 1277.94 1285.14 | Div 0.39 0.31 | Feas 0.19 1.00 | Pen 2.32 0.10
----- GENETIC ALGORITHM FINISHED AFTER 20226 ITERATIONS. TIME SPENT: 10.7369
----- WRITING BEST SOLUTION IN : baseline_results/cvrp_hgs/Vrp-Set-A-n62/Vrp-Set-A-n62-hgs/0.hgs1.tour
