experiment/data/hgs-res/Vrp-Set-A-n62/Vrp-Set-A-n62-hgs/0.hgs1.tour
Route #1: 51 28 15
Route #2: 7 10 8 43 29 61 40 20
Route #3: 55 33 58 17 50 57 32 6
Route #4: 59 26 35 49 25 60 56
Route #5: 34 31 11 4 21 41 23 27 39 3 54 9 5 14
Route #6: 38 19 18 30 1 13 12 48 53
Route #7: 45 47 24 42 46
Route #8: 36 16 37 22 44 2 52
Cost 1293.94
